NAME : mEgtspf.pid11372.gtsp.161061394.tour
COMMENT : Length = 161061394
COMMENT : Found by LKH [Keld Helsgaun] Wed Mar 19 21:10:45 2025
TYPE : TOUR
DIMENSION : 90
TOUR_SECTION
1
31
32
33
34
13
14
11
12
30
27
28
29
6
40
41
42
39
46
43
44
45
59
60
61
62
70
67
68
69
4
83
84
85
86
7
53
54
51
52
73
74
71
72
9
56
57
58
55
49
50
47
48
5
82
79
80
81
8
15
16
17
18
26
23
24
25
3
63
64
65
66
19
20
21
22
76
77
78
75
89
90
87
88
2
10
37
38
35
36
-1
EOF
